40 116
10 15 22 28 30 38
5 6 10 15 21 28 35 37 39
8 11 13 16 17 23 26 28 29 32
4 8 19
3 8
1 6 29 31
1 5 8 11 16 20 23 26 34 37
10 18 21 37
2 3 4 6 15 27 29
13 20 22 27 32 37
0 1 7 12 16 24 25
2 6
10 20 22 32 33 34
2 9 18 39
31 33 35 38
0 1 8 17 26 34
2 6 10 22 23 33 36 37
2 15 23
7 13 21 23 27 29
3 22 30 34 36
6 9 12 21 32 37
1 7 18 20 23 25 29
0 9 12 16 19 26 35 38
2 6 16 17 18 21
10 25
10 21 24 29 36
2 6 15 22 37
8 9 18 32 36 37
0 1 2 30 31 32 34 36
2 5 8 18 21 25 35 37
0 19 28 37 38
5 14 28 32 34
2 9 12 20 27 28 31
12 14 16 39
6 12 15 19 28 31 38
1 14 22 29 37
16 19 25 27 28
1 6 7 9 16 20 26 27 29 30 35 38
0 14 22 30 34 37
1 13 33
